000 -99 000 000 -99 -99 000 000 -99 -99 -99 -99 -99 000 000 000 -99 -99 000 000 000 000 000 -99 000 -99 -99 000 000 -99 -99
-99 -99 000 000 -99 -99 000 000 000 -99 -99 -99 -99 000 000 000 -99 000 -99 -99 -99 000 000 -99 000 -99 -99 000 000 -99 -99
-99 -99 000 000 000 000 000 000 000 -99 -99 -99 -99 -99 000 000 000 000 -99 000 -99 -99 000 000 000 -99 -99 000 000 -99 -99
-99 -99 -99 000 000 000 000 000 000 -99 -99 -99 -99 -99 -99 000 -99 -99 -99 000 000 000 000 000 000 -99 -99 000 000 -99 -99
000 000 000 000 000 000 000 000 000 -99 -99 -99 000 -99 -99 -99 -99 -99 -99 -99 000 000 000 000 000 000 -99 -99 -99 -99 -99
000 -99 000 000 000 000 000 000 -99 -99 -99 -99 000 -99 000 -99 000 -99 -99 -99 000 000 000 000 000 -99 -99 -99 -99 -99 000
000 000 000 000 000 000 000 000 000 000 -99 -99 -99 -99 000 000 000 000 -99 -99 000 000 000 000 000 -99 -99 -99 -99 -99 -99
000 000 000 000 000 000 000 000 000 000 -99 -99 -99 -99 000 000 000 000 000 -99 000 000 000 000 000 -99 -99 -99 -99 -99 -99
000 000 000 000 000 000 000 000 000 000 -99 -99 -99 -99 -99 -99 -99 000 -99 000 000 000 000 000 000 -99 -99 -99 -99 -99 -99
000 000 000 000 000 000 000 000 000 000 -99 -99 -99 -99 -99 -99 000 000 000 000 000 000 000 -99 -99 -99 -99 -99 -99 -99 -99
000 000 000 000 000 000 000 000 000 000 000 000 000 -99 -99 -99 -99 000 000 000 000 000 000 -99 -99 -99 -99 -99 -99 -99 000
000 000 000 000 000 000 000 000 000 000 000 000 000 -99 -99 -99 -99 000 000 000 000 -99 -99 000 -99 -99 -99 -99 -99 -99 000
000 000 000 000 000 000 000 000 000 000 000 000 000 000 -99 -99 000 000 000 000 000 -99 -99 -99 000 000 -99 -99 -99 -99 -99
000 000 000 000 000 000 000 000 -99 000 000 000 000 000 -99 -99 000 000 000 000 000 -99 -99 -99 000 000 000 -99 -99 -99 -99
000 000 000 000 000 000 000 -99 -99 -99 -99 000 000 000 -99 -99 000 000 000 000 000 -99 -99 -99 000 000 000 -99 -99 -99 -99
000 000 000 000 000 000 000 000 000 -99 -99 -99 000 000 -99 -99 000 000 000 -99 -99 -99 -99 -99 000 000 000 -99 001 000 -99
000 000 000 000 000 000 000 000 000 -99 -99 -99 000 000 000 -99 000 000 000 -99 -99 -99 000 -99 -99 000 000 000 000 001 -99
000 000 000 000 000 000 000 000 000 -99 -99 -99 -99 000 000 -99 000 000 000 -99 -99 000 000 -99 -99 -99 -99 -99 000 001 000
000 000 000 000 -99 -99 -99 000 000 -99 -99 -99 -99 000 000 000 000 000 000 -99 000 000 000 -99 -99 -99 -99 -99 005 002 000
000 000 000 000 -99 -99 -99 000 -99 -99 -99 -99 -99 -99 000 000 000 000 -99 -99 000 000 000 -99 -99 -99 -99 -99 -99 002 -99
000 000 000 000 000 -99 -99 000 000 -99 -99 -99 -99 -99 000 000 000 000 000 000 000 000 000 -99 -99 -99 -99 -99 -99 -99 -99
000 000 000 000 000 000 000 000 000 000 -99 -99 -99 000 000 000 000 000 000 000 000 000 000 -99 -99 -99 -99 -99 -99 -99 -99
000 000 000 000 000 000 000 000 000 000 -99 -99 -99 000 000 000 000 000 000 000 000 000 000 -99 -99 -99 -99 -99 -99 -99 -99
000 000 000 000 -99 000 000 000 000 000 -99 -99 000 000 000 000 000 000 -99 000 000 000 000 -99 -99 -99 -99 -99 -99 -99 -99
000 000 000 000 000 000 000 000 000 -99 -99 -99 000 000 000 000 000 000 000 000 000 000 000 -99 -99 -99 -99 -99 -99 -99 -99
000 000 000 000 000 000 -99 000 000 -99 -99 -99 000 000 000 000 000 000 000 000 000 000 000 -99 -99 -99 -99 -99 -99 -99 000
000 000 000 000 000 000 000 000 000 -99 -99 -99 -99 000 000 000 000 000 000 000 000 000 -99 -99 -99 -99 -99 -99 -99 000 000
000 -99 000 -99 000 000 000 000 000 000 -99 -99 -99 -99 000 000 000 000 000 000 000 000 -99 -99 -99 -99 -99 -99 -99 000 000
000 000 000 000 000 000 000 000 000 000 -99 -99 -99 000 000 000 000 000 000 000 000 000 -99 026 -99 -99 -99 483 089 005 001
000 000 000 000 000 000 000 000 000 000 -99 -99 -99 000 000 000 000 000 000 000 000 000 -99 -99 -99 -99 -99 483 089 034 012
-99 000 000 000 000 000 000 000 000 000 -99 -99 -99 000 000 000 000 000 000 000 -99 000 -99 -99 -99 -99 -99 -99 -99 -99 -99
000 000 000 000 000 000 000 000 000 -99 -99 -99 -99 -99 -99 -99 000 000 000 000 000 000 -99 -99 -99 -99 -99 -99 -99 -99 -99
000 000 000 000 000 000 000 000 000 -99 -99 -99 -99 -99 -99 000 000 000 000 000 -99 000 -99 -99 -99 -99 -99 000 -99 000 000
-99 000 000 000 000 000 000 000 -99 -99 -99 -99 -99 -99 -99 000 000 000 000 000 000 000 -99 -99 000 -99 -99 000 000 000 000
-99 000 000 000 000 000 000 000 -99 -99 -99 000 000 -99 000 000 000 000 000 000 000 000 000 000 000 -99 000 000 000 000 000
000 000 000 -99 000 -99 -99 -99 -99 -99 -99 000 000 000 000 000 000 000 000 000 000 000 000 000 -99 -99 000 000 000 000 000
000 000 -99 000 -99 -99 -99 000 -99 -99 -99 -99 000 000 000 000 000 000 000 000 000 000 000 000 -99 000 000 000 000 000 000
000 -99 -99 000 000 -99 -99 000 000 -99 -99 000 000 000 000 000 000 000 000 -99 000 000 000 000 000 000 000 000 000 000 000
000 -99 000 000 000 -99 000 000 -99 -99 -99 000 000 000 000 000 -99 000 000 -99 000 000 000 000 000 000 000 000 000 000 000
000 -99 000 000 -99 -99 000 000 -99 -99 -99 000 000 000 000 000 -99 000 000 -99 000 -99 000 000 000 000 000 000 000 000 000
-99 -99 000 000 -99 -99 -99 -99 -99 -99 000 000 000 000 000 000 -99 -99 000 000 000 000 000 000 000 000 000 -99 -99 000 000
-99 000 -99 000 -99 -99 -99 -99 -99 -99 -99 000 000 000 000 -99 -99 000 000 000 000 -99 000 000 -99 -99 -99 -99 -99 000 000
000 000 -99 -99 -99 -99 -99 -99 -99 -99 -99 000 000 000 000 000 -99 000 000 000 000 000 000 -99 -99 -99 -99 -99 -99 -99 000
000 000 000 -99 -99 -99 -99 000 000 000 000 000 000 000 000 000 000 000 000 000 000 000 -99 -99 -99 -99 -99 000 -99 -99 000
003 001 000 000 -99 000 000 000 000 000 000 000 000 000 000 000 000 000 000 000 -99 -99 000 -99 -99 -99 000 000 -99 -99 -99
004 001 000 000 000 000 000 000 000 002 001 002 001 000 000 000 000 000 000 000 -99 -99 000 000 -99 -99 000 -99 -99 -99 -99
001 006 004 003 001 002 007 001 004 025 007 004 001 000 000 000 000 000 000 -99 -99 000 000 000 -99 -99 -99 -99 -99 -99 -99
003 011 009 009 007 016 013 006 035 035 027 012 003 002 001 000 000 000 000 000 -99 000 000 -99 -99 -99 -99 -99 -99 -99 -99
009 025 010 014 030 018 016 026 062 050 024 015 007 003 001 001 000 000 000 000 000 000 000 -99 -99 -99 -99 -99 -99 -99 -99
006 006 020 019 020 013 010 024 066 048 042 015 008 006 003 000 000 000 000 000 000 000 000 000 000 -99 -99 -99 -99 -99 -99
004 006 008 012 010 004 007 035 020 041 039 031 010 009 003 001 001 001 001 000 000 000 000 000 000 -99 -99 -99 -99 -99 -99
001 002 008 006 003 004 011 002 021 053 056 044 013 011 007 002 001 002 001 000 000 000 000 000 000 -99 -99 -99 -99 -99 -99
000 001 001 003 002 007 002 002 022 034 041 011 004 004 007 003 003 001 000 000 000 000 000 001 000 -99 -99 -99 -99 -99 -99
000 000 000 000 001 000 000 002 005 013 003 000 001 004 008 005 001 000 000 -99 -99 000 000 000 000 -99 -99 -99 -99 -99 -99
-99 -99 000 000 000 000 000 000 001 003 001 000 001 012 033 013 003 000 000 -99 -99 000 000 000 -99 -99 -99 -99 -99 -99 -99
